sat
(
  (define-fun C5_VM14 () Int
    0)
  (define-fun C3_VM2 () Int
    0)
  (define-fun StorageProv14 () Int
    69000)
  (define-fun PriceProv9 () Int
    480)
  (define-fun C1_VM3 () Int
    0)
  (define-fun C2_VM9 () Int
    0)
  (define-fun VM11Type () Int
    1)
  (define-fun ProcProv4 () Int
    900)
  (define-fun C3_VM10 () Int
    0)
  (define-fun C3_VM19 () Int
    0)
  (define-fun ProcProv9 () Int
    3600)
  (define-fun C4_VM3 () Int
    1)
  (define-fun C2_VM10 () Int
    1)
  (define-fun C1_VM12 () Int
    0)
  (define-fun C1_VM4 () Int
    1)
  (define-fun C1_VM18 () Int
    0)
  (define-fun MemProv2 () Int
    3150)
  (define-fun C1_VM7 () Int
    1)
  (define-fun C2_VM1 () Int
    0)
  (define-fun C3_VM6 () Int
    0)
  (define-fun StorageProv10 () Int
    42000)
  (define-fun StorageProv18 () Int
    42000)
  (define-fun C2_VM19 () Int
    0)
  (define-fun C1_VM10 () Int
    1)
  (define-fun C1_VM11 () Int
    1)
  (define-fun PriceProv7 () Int
    120)
  (define-fun VM16Type () Int
    0)
  (define-fun VM12Type () Int
    0)
  (define-fun C1_VM14 () Int
    0)
  (define-fun C5_VM12 () Int
    0)
  (define-fun C4_VM9 () Int
    0)
  (define-fun StorageProv19 () Int
    42000)
  (define-fun ProcProv17 () Int
    1800)
  (define-fun C4_VM19 () Int
    0)
  (define-fun PriceProv5 () Int
    120)
  (define-fun MemProv15 () Int
    0)
  (define-fun C4_VM12 () Int
    0)
  (define-fun C5_VM17 () Int
    0)
  (define-fun PriceProv8 () Int
    480)
  (define-fun PriceProv16 () Int
    0)
  (define-fun ProcProv14 () Int
    1800)
  (define-fun C2_VM4 () Int
    1)
  (define-fun C5_VM3 () Int
    0)
  (define-fun C1_VM1 () Int
    0)
  (define-fun MemProv13 () Int
    1349)
  (define-fun StorageProv13 () Int
    69000)
  (define-fun PriceProv3 () Int
    240)
  (define-fun C4_VM16 () Int
    0)
  (define-fun C3_VM13 () Int
    0)
  (define-fun C4_VM2 () Int
    1)
  (define-fun C1_VM6 () Int
    1)
  (define-fun C3_VM15 () Int
    0)
  (define-fun C3_VM12 () Int
    0)
  (define-fun C1_VM16 () Int
    0)
  (define-fun StorageProv16 () Int
    42000)
  (define-fun C1_VM8 () Int
    1)
  (define-fun VM8Type () Int
    10)
  (define-fun C5_VM2 () Int
    0)
  (define-fun MemProv17 () Int
    3150)
  (define-fun C2_VM15 () Int
    0)
  (define-fun PriceProv6 () Int
    120)
  (define-fun C4_VM1 () Int
    1)
  (define-fun StorageProv7 () Int
    42000)
  (define-fun C4_VM7 () Int
    0)
  (define-fun C4_VM6 () Int
    0)
  (define-fun C1_VM19 () Int
    0)
  (define-fun VM13Type () Int
    0)
  (define-fun MemProv9 () Int
    6750)
  (define-fun VM15Type () Int
    0)
  (define-fun C4_VM13 () Int
    0)
  (define-fun VM4Type () Int
    1)
  (define-fun C2_VM11 () Int
    1)
  (define-fun PriceProv14 () Int
    0)
  (define-fun C5_VM16 () Int
    0)
  (define-fun MemProv1 () Int
    3150)
  (define-fun C4_VM17 () Int
    0)
  (define-fun VM7Type () Int
    1)
  (define-fun PriceProv19 () Int
    0)
  (define-fun ProcProv6 () Int
    900)
  (define-fun VM10Type () Int
    1)
  (define-fun C2_VM2 () Int
    0)
  (define-fun C4_VM11 () Int
    0)
  (define-fun C1_VM5 () Int
    1)
  (define-fun ProcProv7 () Int
    900)
  (define-fun VM6Type () Int
    1)
  (define-fun ProcProv5 () Int
    900)
  (define-fun VM17Type () Int
    0)
  (define-fun StorageProv17 () Int
    69000)
  (define-fun PriceProv12 () Int
    0)
  (define-fun ProcProv16 () Int
    900)
  (define-fun PriceProv17 () Int
    0)
  (define-fun ProcProv2 () Int
    1800)
  (define-fun C5_VM13 () Int
    0)
  (define-fun C1_VM9 () Int
    1)
  (define-fun C3_VM3 () Int
    0)
  (define-fun MemProv14 () Int
    3150)
  (define-fun C1_VM17 () Int
    0)
  (define-fun C2_VM8 () Int
    0)
  (define-fun C3_VM8 () Int
    0)
  (define-fun StorageProv3 () Int
    69000)
  (define-fun StorageProv6 () Int
    42000)
  (define-fun PriceProv1 () Int
    240)
  (define-fun StorageProv4 () Int
    42000)
  (define-fun ProcProv19 () Int
    900)
  (define-fun VM5Type () Int
    1)
  (define-fun VM19Type () Int
    0)
  (define-fun C3_VM4 () Int
    0)
  (define-fun StorageProv2 () Int
    69000)
  (define-fun C5_VM9 () Int
    1)
  (define-fun MemProv3 () Int
    3150)
  (define-fun MemProv16 () Int
    1351)
  (define-fun ProcProv13 () Int
    1800)
  (define-fun C5_VM15 () Int
    0)
  (define-fun ProcProv8 () Int
    3600)
  (define-fun C3_VM7 () Int
    0)
  (define-fun ProcProv12 () Int
    1800)
  (define-fun C2_VM3 () Int
    0)
  (define-fun VM1Type () Int
    7)
  (define-fun C3_VM14 () Int
    0)
  (define-fun C2_VM13 () Int
    0)
  (define-fun StorageProv12 () Int
    69000)
  (define-fun C1_VM13 () Int
    0)
  (define-fun PriceProv13 () Int
    0)
  (define-fun C3_VM5 () Int
    0)
  (define-fun PriceProv18 () Int
    0)
  (define-fun ProcProv18 () Int
    901)
  (define-fun ProcProv1 () Int
    1800)
  (define-fun StorageProv5 () Int
    42000)
  (define-fun MemProv19 () Int
    1351)
  (define-fun PriceProv4 () Int
    120)
  (define-fun VM14Type () Int
    0)
  (define-fun C2_VM17 () Int
    0)
  (define-fun StorageProv8 () Int
    141000)
  (define-fun C2_VM18 () Int
    0)
  (define-fun MemProv11 () Int
    1350)
  (define-fun C4_VM5 () Int
    0)
  (define-fun C5_VM19 () Int
    0)
  (define-fun VM2Type () Int
    7)
  (define-fun VM3Type () Int
    7)
  (define-fun C2_VM12 () Int
    0)
  (define-fun PriceProv2 () Int
    240)
  (define-fun C4_VM8 () Int
    0)
  (define-fun C2_VM14 () Int
    0)
  (define-fun C5_VM7 () Int
    0)
  (define-fun PriceProv10 () Int
    120)
  (define-fun PriceProv15 () Int
    0)
  (define-fun C5_VM5 () Int
    0)
  (define-fun C3_VM17 () Int
    0)
  (define-fun C1_VM2 () Int
    0)
  (define-fun StorageProv1 () Int
    69000)
  (define-fun C4_VM14 () Int
    0)
  (define-fun C5_VM11 () Int
    0)
  (define-fun MemProv4 () Int
    1350)
  (define-fun C4_VM15 () Int
    0)
  (define-fun PriceProv11 () Int
    120)
  (define-fun ProcProv10 () Int
    900)
  (define-fun MemProv18 () Int
    0)
  (define-fun C2_VM5 () Int
    1)
  (define-fun MemProv7 () Int
    1350)
  (define-fun MemProv8 () Int
    6750)
  (define-fun C5_VM1 () Int
    0)
  (define-fun C4_VM18 () Int
    0)
  (define-fun ProcProv3 () Int
    1800)
  (define-fun C5_VM4 () Int
    0)
  (define-fun C3_VM1 () Int
    0)
  (define-fun MemProv5 () Int
    1350)
  (define-fun C3_VM16 () Int
    0)
  (define-fun C5_VM6 () Int
    0)
  (define-fun C2_VM16 () Int
    0)
  (define-fun ProcProv11 () Int
    900)
  (define-fun ProcProv15 () Int
    900)
  (define-fun MemProv10 () Int
    1350)
  (define-fun C2_VM6 () Int
    1)
  (define-fun C5_VM18 () Int
    0)
  (define-fun C2_VM7 () Int
    1)
  (define-fun C4_VM10 () Int
    0)
  (define-fun C4_VM4 () Int
    0)
  (define-fun VM18Type () Int
    0)
  (define-fun C5_VM10 () Int
    0)
  (define-fun VM9Type () Int
    10)
  (define-fun C3_VM9 () Int
    0)
  (define-fun C3_VM18 () Int
    0)
  (define-fun StorageProv15 () Int
    42000)
  (define-fun MemProv6 () Int
    1350)
  (define-fun C3_VM11 () Int
    0)
  (define-fun StorageProv9 () Int
    141000)
  (define-fun C1_VM15 () Int
    0)
  (define-fun MemProv12 () Int
    1349)
  (define-fun StorageProv11 () Int
    42000)
  (define-fun C5_VM8 () Int
    1)
)
(objectives
 ( 36)
 ((+ 0
   PriceProv1
   PriceProv2
   PriceProv3
   PriceProv4
   PriceProv5
   PriceProv6
   PriceProv7
   PriceProv8
   PriceProv9
   PriceProv10
   PriceProv11
   PriceProv12
   PriceProv13
   PriceProv14
   PriceProv15
   PriceProv16
   PriceProv17
   PriceProv18
   PriceProv19) 2400)
)
(:added-eqs                   1045667
 :arith-eq-adapter            82488
 :arith-bound-propagations-lp 501
 :arith-conflicts             29
 :arith-diseq                 469989
 :arith-fixed-eqs             23602
 :arith-lower                 855412
 :arith-make-feasible         94808
 :arith-max-columns           277
 :arith-max-rows              59
 :arith-upper                 336222
 :binary-propagations         3184539
 :conflicts                   20447
 :decisions                   228641
 :del-clause                  65787
 :final-checks                55
 :max-memory                  54.02
 :maxsat-cores                3
 :memory                      53.78
 :minimized-lits              121723
 :mk-bool-var                 172952
 :mk-clause                   70449
 :mk-clause-binary            9438
 :num-allocs                  1011705272
 :num-checks                  135
 :pb-conflicts                10717
 :pb-predicates               957
 :pb-propagations             74982
 :pb-resolves                 2685
 :propagations                4118397
 :restarts                    151
 :rlimit-count                26220692
 :time                        1.19
 :total-time                  1.20)
